r = [
0,83,27,126,116,74,122,17,119,79,33,0
];
p = [
0,19,18,16,17,10,9,19,27,17,9,0
];
e = [
0,4,3,4,14,10,19,13,9,19,16,0
];
d = [
0,102,45,142,136,95,131,36,146,100,50,149
];
d_bar = [
0,104,47,144,138,96,132,38,149,102,51,149
];
w = [
0,2,1.5,2,7,10,19,6.5,3,9.5,16,0
];
